&BANDS
  prefix = 'nb'
  outdir = './'
  filband = 'nb_bands.dat'
/
