 &control
    calculation='bands'
    restart_mode='from_scratch',
    verbosity='high',
    prefix='nb',
    pseudo_dir = './'
    outdir='./'
 /
 &system
    ibrav=  3, celldm(1) =6.23610, nat= 1, ntyp= 1,
    ecutwfc =25.0, ecutrho=250.0,
    occupations='smearing', smearing='marzari-vanderbilt', degauss=0.05
    nspin=2, starting_magnetization(1)=0.01
 /
 &electrons
    conv_thr =  1.0d-8
    mixing_beta = 0.7
 /
ATOMIC_SPECIES
 Nb 92.9064 Nb.pbe-spn-kjpaw_psl.1.0.0.UPF
ATOMIC_POSITIONS
 Nb 0.00 0.00 0.00

K_POINTS {crystal_b}
8
  0.0000000000    0.0000000000    0.0000000000 20 !G
  0.5000000000    -0.5000000000   0.5000000000 20 !H
  0.0000000000    0.0000000000    0.5000000000 20 !N
  0.0000000000    0.0000000000    0.0000000000 20 !G
  0.2500000000    0.2500000000    0.2500000000 20 !P
  0.0000000000    0.0000000000    0.5000000000 20 !N
  0.2500000000    0.2500000000    0.2500000000 20 !P
  0.5000000000    -0.5000000000   0.5000000000 20 !H

