 &projwfc
    prefix='nb'
    outdir='./'
    filpdos='./nb'
    lwrite_overlaps = .false.
    lbinary_data  = .false.
 /
